nApps = 35
nRes = 6
nActs = 76
nNetworks = 4

assignmentToResources = [2,1,2,2,1,1,1,1,2,1,1,2,1,1,1,1,2,1,2,2,2,2,1,1,1,2,2,2,2,1,4,4,3,4,3,3,3,3,3,4,3,3,3,3,4,4,4,5,3,6,3,6,4,5,3,6,3,6,4,5,5,5,6,5,6,6,6,6,6,5,6,6,6,6,5,5];

processingTimes = [80,136,104,80,136,120,128,136,128,128,104,128,88,64,96,48,112,120,136,136,128,168,56,152,128,128,128,160,48,112,1500,4,4,4,1000,4,4,1000,1000,5,1000,4,13,300,8,4,3,3,3,3,3,3,3,3,3,3,11,11,4,4,1500,4,4,4,1000,4,4,1000,1000,5,1000,4,13,300,8,4];

periods = [10000,10000,10000,10000,10000,10000,10000,10000,5000,10000,10000,10000,10000,10000,10000,10000,10000,2000,10000,10000,1000,10000,10000,10000,10000,10000,10000,10000,10000,10000,10000,10000,10000,10000,10000,10000,10000,10000,10000,10000,10000,10000,10000,2000,10000,10000,10000,10000,10000,10000,10000,10000,10000,10000,10000,10000,10000,10000,10000,10000,10000,10000,10000,10000,10000,10000,10000,10000,10000,10000,10000,10000,10000,2000,10000,10000];

assignmentToClusters = [1,2,3,4,5,6,7,8,9,10,11,12,13,5,14,15,16,17,5,7,18,7,15,19,5,5,5,8,19,7,20,21,22,23,24,25,26,27,28,29,30,31,32,33,34,35,5,5,5,5,5,5,7,7,7,7,8,8,19,19,20,21,22,23,24,25,26,27,28,29,30,31,32,33,34,35];

precedenceAdjList = [[],[],[],[],[47],[],[53],[],[],[],[],[],[],[],[],[],[],[],[49],[],[],[55],[15],[59],[13],[51],[18],[57],[],[6],[],[],[],[],[],[],[],[],[],[],[],[],[],[],[],[],[26],[46],[24],[48],[4],[50],[19],[52],[29],[54],[7],[56],[28],[58],[30],[31],[32],[33],[34],[35],[36],[37],[38],[39],[40],[41],[42],[43],[44],[45]];